GLPSOL: GLPK LP/MIP Solver, v4.65
Parameter(s) specified in the command line:
 -m eqsystem-original.mod -d eqsystem-overspecified.dat --log eqsystem-overspecified-original.log
Reading model section from eqsystem-original.mod...
21 lines were read
Reading data section from eqsystem-overspecified.dat...
30 lines were read
Generating Cts...
Model has been successfully generated
GLPK Simplex Optimizer, v4.65
6 rows, 5 columns, 19 non-zeros
Preprocessing...
6 rows, 5 columns, 19 non-zeros
Scaling...
 A: min|aij| =  1.000e+00  max|aij| =  7.000e+00  ratio =  7.000e+00
Problem data seem to be well scaled
Constructing initial basis...
Size of triangular part is 4
      0: obj =   0.000000000e+00 inf =   8.500e+00 (2)
      1: obj =   0.000000000e+00 inf =   3.667e+00 (1)
LP HAS NO PRIMAL FEASIBLE SOLUTION
glp_simplex: unable to recover undefined or non-optimal solution
Time used:   0.0 secs
Memory used: 0.1 Mb (118495 bytes)
